c nIsolatedPIs 6
c maxPI 10
p cnf 67 172
c gate 11 1 8 0
1 -11 0
8 -11 0
-1 -8 11 0
c gate 12 2 7 0
2 -12 0
7 -12 0
-2 -7 12 0
c gate 13 3 6 0
3 -13 0
6 -13 0
-3 -6 13 0
c gate 14 -12 -13 0
-12 -14 0
-13 -14 0
12 13 14 0
c gate 15 12 13 0
12 -15 0
13 -15 0
-12 -13 15 0
c gate 16 -14 -15 0
-14 -16 0
-15 -16 0
14 15 16 0
c gate 17 11 16 0
11 -17 0
16 -17 0
-11 -16 17 0
c gate 18 -11 -16 0
-11 -18 0
-16 -18 0
11 16 18 0
c gate 19 -17 -18 0
-17 -19 0
-18 -19 0
17 18 19 0
c gate 20 2 6 0
2 -20 0
6 -20 0
-2 -6 20 0
c gate 21 1 7 0
1 -21 0
7 -21 0
-1 -7 21 0
c gate 22 20 21 0
20 -22 0
21 -22 0
-20 -21 22 0
c gate 23 19 22 0
19 -23 0
22 -23 0
-19 -22 23 0
c gate 24 1 9 0
1 -24 0
9 -24 0
-1 -9 24 0
c gate 25 -15 -17 0
-15 -25 0
-17 -25 0
15 17 25 0
c gate 26 2 8 0
2 -26 0
8 -26 0
-2 -8 26 0
c gate 27 3 7 0
3 -27 0
7 -27 0
-3 -7 27 0
c gate 28 4 6 0
4 -28 0
6 -28 0
-4 -6 28 0
c gate 29 -27 -28 0
-27 -29 0
-28 -29 0
27 28 29 0
c gate 30 27 28 0
27 -30 0
28 -30 0
-27 -28 30 0
c gate 31 -29 -30 0
-29 -31 0
-30 -31 0
29 30 31 0
c gate 32 26 31 0
26 -32 0
31 -32 0
-26 -31 32 0
c gate 33 -26 -31 0
-26 -33 0
-31 -33 0
26 31 33 0
c gate 34 -32 -33 0
-32 -34 0
-33 -34 0
32 33 34 0
c gate 35 -25 34 0
-25 -35 0
34 -35 0
25 -34 35 0
c gate 36 25 -34 0
25 -36 0
-34 -36 0
-25 34 36 0
c gate 37 -35 -36 0
-35 -37 0
-36 -37 0
35 36 37 0
c gate 38 24 37 0
24 -38 0
37 -38 0
-24 -37 38 0
c gate 39 -24 -37 0
-24 -39 0
-37 -39 0
24 37 39 0
c gate 40 -38 -39 0
-38 -40 0
-39 -40 0
38 39 40 0
c gate 41 23 40 0
23 -41 0
40 -41 0
-23 -40 41 0
c gate 42 -35 -38 0
-35 -42 0
-38 -42 0
35 38 42 0
c gate 43 1 10 0
1 -43 0
10 -43 0
-1 -10 43 0
c gate 44 2 9 0
2 -44 0
9 -44 0
-2 -9 44 0
c gate 45 -43 -44 0
-43 -45 0
-44 -45 0
43 44 45 0
c gate 46 43 44 0
43 -46 0
44 -46 0
-43 -44 46 0
c gate 47 -45 -46 0
-45 -47 0
-46 -47 0
45 46 47 0
c gate 48 -30 -32 0
-30 -48 0
-32 -48 0
30 32 48 0
c gate 49 3 8 0
3 -49 0
8 -49 0
-3 -8 49 0
c gate 50 4 7 0
4 -50 0
7 -50 0
-4 -7 50 0
c gate 51 5 6 0
5 -51 0
6 -51 0
-5 -6 51 0
c gate 52 -50 -51 0
-50 -52 0
-51 -52 0
50 51 52 0
c gate 53 50 51 0
50 -53 0
51 -53 0
-50 -51 53 0
c gate 54 -52 -53 0
-52 -54 0
-53 -54 0
52 53 54 0
c gate 55 49 54 0
49 -55 0
54 -55 0
-49 -54 55 0
c gate 56 -49 -54 0
-49 -56 0
-54 -56 0
49 54 56 0
c gate 57 -55 -56 0
-55 -57 0
-56 -57 0
55 56 57 0
c gate 58 -48 57 0
-48 -58 0
57 -58 0
48 -57 58 0
c gate 59 48 -57 0
48 -59 0
-57 -59 0
-48 57 59 0
c gate 60 -58 -59 0
-58 -60 0
-59 -60 0
58 59 60 0
c gate 61 47 60 0
47 -61 0
60 -61 0
-47 -60 61 0
c gate 62 -47 -60 0
-47 -62 0
-60 -62 0
47 60 62 0
c gate 63 -61 -62 0
-61 -63 0
-62 -63 0
61 62 63 0
c gate 64 -42 63 0
-42 -64 0
63 -64 0
42 -63 64 0
c gate 65 42 -63 0
42 -65 0
-63 -65 0
-42 63 65 0
c gate 66 -64 -65 0
-64 -66 0
-65 -66 0
64 65 66 0
c gate 67 41 66 0
41 -67 0
66 -67 0
-41 -66 67 0
c PO
67 0
